3 32 1 10
18 13 16 13 11 4 11 17 19 8 12 2 2 5 3 4 16 17 11 12 12 9 9 7 1 7 17 2 8 1 10 16 
7.05 11.83 2.14 6.55 15.41 0.18 15.35 11.41 0.16 14.81 0.87 14.59 6.18 1.86 15.71 5.24 7.71 4.21 14.76 10.86 5.47 7.97 7.93 10.31 13.26 14.57 10.54 8.71 4.9 3.33 7.31 11.27 
8 8 8 8 8 8 8 8 8 8 8 8 8 8 8 8 8 8 8 8 8 8 8 8 8 8 8 8 8 8 8 8 
9.99 6.2 6.41 11.36 3.17 2.91 3.6 7.29 11.85 3.19 3.37 8.81 2.97 15.27 4.6 2.61 15.82 5.03 15.86 4.13 7.68 6.71 3.49 8.95 7.09 9.67 14.13 10.95 9.27 5.39 14.41 10.26 
1 1 1 1 1 1 1 1 1 1 1 1 1 1 1 1 1 1 1 1 1 1 1 1 1 1 1 1 1 1 1 1 
1 1 1 1 1 1 1 1 1 1 1 1 1 1 1 1 1 1 1 1 1 1 1 1 1 1 1 1 1 1 1 1 
1 1 1 1 1 1 1 1 1 1 1 1 1 1 1 1 1 1 1 1 1 1 1 1 1 1 1 1 1 1 1 1 
0.01 0.01 0.01 0.01 0.01 0.01 0.01 0.01 0.01 0.01 0.01 0.01 0.01 0.01 0.01 0.01 0.01 0.01 0.01 0.01 0.01 0.01 0.01 0.01 0.01 0.01 0.01 0.01 0.01 0.01 0.01 0.01 
0.02 0.02 0.02 0.02 0.02 0.02 0.02 0.02 0.02 0.02 0.02 0.02 0.02 0.02 0.02 0.02 0.02 0.02 0.02 0.02 0.02 0.02 0.02 0.02 0.02 0.02 0.02 0.02 0.02 0.02 0.02 0.02 
1 1 1 1 1 1 1 1 1 1 1 1 1 1 1 1 1 1 1 1 1 1 1 1 1 1 1 1 1 1 1 1 
